1614.13,35.08,42.05
1423.44,39.78,47.68
1661.69,34.08,40.84
1667.34,33.96,40.7
1613.44,35.1,42.06
1547.91,36.58,43.84
1582.92,35.77,42.88
1694.23,33.42,40.06
1646.29,34.4,41.22
1762.43,32.13,38.51
1597.58,35.45,42.48
1617.15,35.02,41.97
1545.85,36.63,43.9
1419.96,39.88,47.8
1598.14,35.43,42.47
1486.19,38.1,45.67
1615.82,35.05,42.0
1452.91,38.98,46.71
1814.88,31.2,37.4
1459.09,38.81,46.51
